p wcnf 137 206 207 
1 98 26 0 
1 11 -64 0 
1 -117 102 0 
1 -34 -46 0 
1 -105 -60 0 
1 112 44 0 
1 -132 -12 0 
1 27 121 0 
1 9 -101 0 
1 -108 -107 0 
1 66 -20 0 
1 21 104 0 
1 -70 -116 0 
1 -124 -89 0 
1 36 2 0 
1 95 -80 0 
1 -51 -131 0 
1 -94 -6 0 
1 -54 92 0 
1 -55 27 0 
1 5 -43 0 
1 -78 71 0 
1 -119 123 0 
1 77 115 0 
1 -27 -45 0 
1 21 -41 0 
1 93 -46 0 
1 -67 -75 0 
1 8 -126 0 
1 81 -88 0 
1 136 81 0 
1 -3 -17 0 
1 -99 -130 0 
1 -119 -105 0 
1 -87 43 0 
1 71 62 0 
1 62 15 0 
1 -107 -11 0 
1 110 -95 0 
1 35 -12 0 
1 -93 -41 0 
1 137 -78 0 
1 -70 119 0 
1 123 33 0 
1 118 47 0 
1 20 115 0 
1 58 1 0 
1 -100 -42 0 
1 70 103 0 
1 -52 24 0 
1 -75 11 0 
1 120 59 0 
1 40 -102 0 
1 51 105 0 
1 53 104 0 
1 102 -43 0 
1 32 -13 0 
1 12 127 0 
1 -132 -99 0 
1 54 130 0 
1 -132 21 0 
1 43 -50 0 
1 -52 -36 0 
1 -39 113 0 
1 115 17 0 
1 101 90 0 
1 -130 37 0 
1 25 -62 0 
1 108 -36 0 
1 -41 87 0 
1 102 94 0 
1 -132 -106 0 
1 -73 55 0 
1 98 -44 0 
1 -26 86 0 
1 32 107 0 
1 -16 -53 0 
1 70 110 0 
1 -71 110 0 
1 -21 14 0 
1 75 88 0 
1 -84 -129 0 
1 -100 70 0 
1 -27 8 0 
1 -9 10 0 
1 59 74 0 
1 22 106 0 
1 -45 -15 0 
1 -128 27 0 
1 43 137 0 
1 9 -56 0 
1 104 -31 0 
1 -108 22 0 
1 -39 81 0 
1 -12 -20 0 
1 -34 16 0 
1 1 89 0 
1 129 -50 0 
1 45 13 0 
1 -75 -87 0 
1 -114 134 0 
1 77 -31 0 
1 91 3 0 
1 18 7 0 
1 -62 -22 0 
1 115 -83 0 
1 19 -116 0 
1 -85 122 0 
1 -27 -42 0 
1 46 -69 0 
1 -81 116 0 
1 -77 106 0 
1 106 64 0 
1 -22 -45 0 
1 1 85 0 
1 43 -36 0 
1 -130 -8 0 
1 45 61 0 
1 -82 85 0 
1 -61 89 0 
1 -110 3 0 
1 113 25 0 
1 -113 47 0 
1 95 -66 0 
1 -33 -116 0 
1 7 -127 0 
1 34 -84 0 
1 -65 41 0 
1 -28 135 0 
1 38 -54 0 
1 68 -135 0 
1 97 3 0 
1 -62 -136 0 
1 53 94 0 
1 -136 56 0 
1 102 32 0 
1 -67 89 0 
1 86 117 0 
1 -33 71 0 
1 92 41 0 
1 -134 97 0 
1 135 -8 0 
1 -89 -35 0 
1 44 69 0 
1 137 83 0 
1 -39 -23 0 
1 117 -69 0 
1 76 -105 0 
1 -40 -15 0 
1 53 -110 0 
1 -47 -18 0 
1 34 -18 0 
1 61 -86 0 
1 -31 -4 0 
1 -90 91 0 
1 -67 105 0 
1 29 50 0 
1 11 39 0 
1 -84 -47 0 
1 -31 15 0 
1 34 25 0 
1 -30 78 0 
1 22 34 0 
1 -117 -71 0 
1 9 1 0 
1 -23 11 0 
1 -46 127 0 
1 124 -25 0 
1 26 65 0 
1 91 30 0 
1 131 -106 0 
1 -126 123 0 
1 44 6 0 
1 13 9 0 
1 48 -95 0 
1 -103 -68 0 
1 -125 -137 0 
1 -129 -104 0 
1 -42 -75 0 
1 -7 -44 0 
1 27 80 0 
1 85 -82 0 
1 94 84 0 
1 12 6 0 
1 36 101 0 
1 -94 137 0 
1 -11 -44 0 
1 -16 3 0 
1 123 60 0 
1 -105 4 0 
1 76 94 0 
1 -26 15 0 
1 36 31 0 
1 -30 -105 0 
1 -75 -116 0 
1 -68 45 0 
1 -103 80 0 
1 81 -72 0 
1 -64 -100 0 
1 -126 -55 0 
1 118 79 0 
1 -132 39 0 
1 23 -59 0 
1 -62 2 0 
1 -71 -35 0 
1 21 121 0 
